% Logging successfully configured
%%%mzn-stat: initTime=0.002907972
%%%mzn-stat: objective=758
%%%mzn-stat: nodes=2107
%%%mzn-stat: restarts=0
%%%mzn-stat: peakDepth=163
%%%mzn-stat: solveTime=0.092456292
%%%mzn-stat: variables=433
%%%mzn-stat: propagators=266
%%%mzn-stat: failures=735
%%%mzn-stat: propagations=29970
%%%mzn-stat: nogoods=735
%%%mzn-stat: numAtomicConstraintsPropagated=0
%%%mzn-stat: allDifferentNumber1TotalHallSetSize=9478
%%%mzn-stat: allDifferentNumber1NumberOfConflicts=560
%%%mzn-stat: allDifferentNumber1MaxHallSetSize=47
%%%mzn-stat: allDifferentNumber1PropagationsTotal=3929
%%%mzn-stat: allDifferentNumber1PropagationsThatFoundConflict=560
%%%mzn-stat: circuitNumber2PropagationsThatFoundConflict=167
%%%mzn-stat: circuitNumber2TotalFixedEdgesAtConflict=7799
%%%mzn-stat: circuitNumber2NumberOfConflicts=167
%%%mzn-stat: circuitNumber2PropagationsThatPruned=423
%%%mzn-stat: circuitNumber2PropagationsTotal=2440
%%%mzn-stat: AverageConflictSize=18.666666666666668
%%%mzn-stat: NumUnitNogoodsLearned=0
%%%mzn-stat: AverageLearnedNogoodLength=10.420408163265305
%%%mzn-stat: AverageBacktrackAmount=0
%%%mzn-stat: AverageLbd=7.729251700680272
%%%mzn-stat: 2AutonomousSearchNumBackupCalled=149
%%%mzn-stat: 2AutonomousSearchNumPredicatesRemoved=0
%%%mzn-stat: 2AutonomousSearchNumCalls=150
%%%mzn-stat: 2AutonomousSearchNumPredicatesAdded=1914
%%%mzn-stat: 2AutonomousSearchAverageSizeOfHeap=12.76
%%%mzn-stat: 2AutonomousSearchNumAssignedPredicatesEncountered=1914
%%%mzn-stat-end
maxleg = 758;
succ = array1d(1..50,[6, 8, 7, 24, 14, 48, 39, 37, 19, 11, 20, 26, 29, 16, 9, 45, 38, 12, 33, 32, 15, 28, 5, 30, 21, 44, 42, 23, 31, 46, 2, 18, 49, 10, 25, 47, 40, 35, 13, 1, 36, 41, 34, 22, 17, 43, 4, 50, 3, 27]);
% time elapsed: 0.61 s
----------
%%%mzn-stat: initTime=0.002907972
%%%mzn-stat: objective=344
%%%mzn-stat: nodes=2976
%%%mzn-stat: restarts=0
%%%mzn-stat: peakDepth=163
%%%mzn-stat: solveTime=0.121266853
%%%mzn-stat: variables=433
%%%mzn-stat: propagators=266
%%%mzn-stat: failures=972
%%%mzn-stat: propagations=42911
%%%mzn-stat: nogoods=972
%%%mzn-stat: numAtomicConstraintsPropagated=0
%%%mzn-stat: allDifferentNumber1TotalHallSetSize=10667
%%%mzn-stat: allDifferentNumber1NumberOfConflicts=749
%%%mzn-stat: allDifferentNumber1MaxHallSetSize=47
%%%mzn-stat: allDifferentNumber1PropagationsTotal=5419
%%%mzn-stat: allDifferentNumber1PropagationsThatFoundConflict=749
%%%mzn-stat: circuitNumber2PropagationsThatFoundConflict=199
%%%mzn-stat: circuitNumber2TotalFixedEdgesAtConflict=8911
%%%mzn-stat: circuitNumber2NumberOfConflicts=199
%%%mzn-stat: circuitNumber2PropagationsThatPruned=650
%%%mzn-stat: circuitNumber2PropagationsTotal=3427
%%%mzn-stat: AverageConflictSize=15.975308641975309
%%%mzn-stat: NumUnitNogoodsLearned=0
%%%mzn-stat: AverageLearnedNogoodLength=9.818930041152264
%%%mzn-stat: AverageBacktrackAmount=0
%%%mzn-stat: AverageLbd=7.0853909465020575
%%%mzn-stat: 2AutonomousSearchNumBackupCalled=290
%%%mzn-stat: 2AutonomousSearchNumPredicatesRemoved=0
%%%mzn-stat: 2AutonomousSearchNumCalls=292
%%%mzn-stat: 2AutonomousSearchNumPredicatesAdded=3981
%%%mzn-stat: 2AutonomousSearchAverageSizeOfHeap=14.613013698630137
%%%mzn-stat: 2AutonomousSearchNumAssignedPredicatesEncountered=4267
%%%mzn-stat-end
maxleg = 344;
succ = array1d(1..50,[6, 29, 7, 50, 14, 27, 13, 2, 19, 11, 20, 26, 39, 16, 31, 45, 30, 12, 46, 32, 15, 28, 5, 4, 21, 44, 42, 23, 49, 38, 1, 18, 3, 10, 25, 47, 8, 35, 9, 37, 36, 41, 34, 22, 17, 43, 24, 40, 33, 48]);
% time elapsed: 0.64 s
----------
==========
% time elapsed: 0.66 s
%%%mzn-stat: initTime=0.002907972
%%%mzn-stat: objective=344
%%%mzn-stat: nodes=3504
%%%mzn-stat: restarts=0
%%%mzn-stat: peakDepth=163
%%%mzn-stat: solveTime=0.155047251
%%%mzn-stat: variables=433
%%%mzn-stat: propagators=266
%%%mzn-stat: failures=1263
%%%mzn-stat: propagations=54057
%%%mzn-stat: nogoods=1263
%%%mzn-stat: numAtomicConstraintsPropagated=0
%%%mzn-stat: allDifferentNumber1TotalHallSetSize=14885
%%%mzn-stat: allDifferentNumber1NumberOfConflicts=970
%%%mzn-stat: allDifferentNumber1MaxHallSetSize=47
%%%mzn-stat: allDifferentNumber1PropagationsTotal=6693
%%%mzn-stat: allDifferentNumber1PropagationsThatFoundConflict=970
%%%mzn-stat: circuitNumber2PropagationsThatFoundConflict=245
%%%mzn-stat: circuitNumber2TotalFixedEdgesAtConflict=10397
%%%mzn-stat: circuitNumber2NumberOfConflicts=245
%%%mzn-stat: circuitNumber2PropagationsThatPruned=832
%%%mzn-stat: circuitNumber2PropagationsTotal=4206
%%%mzn-stat: AverageConflictSize=14.55581947743468
%%%mzn-stat: NumUnitNogoodsLearned=1
%%%mzn-stat: AverageLearnedNogoodLength=9.889944576405384
%%%mzn-stat: AverageBacktrackAmount=0
%%%mzn-stat: AverageLbd=6.602533650039589
%%%mzn-stat: 2AutonomousSearchNumBackupCalled=290
%%%mzn-stat: 2AutonomousSearchNumPredicatesRemoved=0
%%%mzn-stat: 2AutonomousSearchNumCalls=292
%%%mzn-stat: 2AutonomousSearchNumPredicatesAdded=6282
%%%mzn-stat: 2AutonomousSearchAverageSizeOfHeap=14.613013698630137
%%%mzn-stat: 2AutonomousSearchNumAssignedPredicatesEncountered=4267
%%%mzn-stat-end
